solution status: optimal solution found
objective value:                                    0
shell_j_$_66                                        1 	(obj:0)
shell_j_$_126                                       1 	(obj:0)
shell_j_$_127                                       1 	(obj:0)
shell_j_$_67                                        1 	(obj:0)
shell_j_$_123                                       1 	(obj:0)
shell_j_$_109                                       1 	(obj:0)
shell_i_$_115                                       1 	(obj:0)
shell_i_$_68                                        1 	(obj:0)
shell_i_$_112                                       1 	(obj:0)
shell_j_$_121                                       1 	(obj:0)
shell_j_$_113                                       1 	(obj:0)
shell_j_$_120                                       1 	(obj:0)
shell_j_$_116                                       1 	(obj:0)
shell_j_$_111                                       1 	(obj:0)
shell_j_$_124                                       1 	(obj:0)
shell_j_$_69                                        1 	(obj:0)
shell_j_$_110                                       1 	(obj:0)
shell_j_$_125                                       1 	(obj:0)
shell_j_$_122                                       1 	(obj:0)
shell_i_$_114                                       1 	(obj:0)
$_112_x                                            10 	(obj:0)
$_112_y                                             9 	(obj:0)
$_112_z                                            24 	(obj:0)
$_67_y                                             10 	(obj:0)
$_67_z                                             22 	(obj:0)
$_121_y                                            10 	(obj:0)
$_121_z                                            23 	(obj:0)
$_126_y                                            10 	(obj:0)
$_126_z                                            24 	(obj:0)
$_113_x                                            10 	(obj:0)
$_113_y                                            10 	(obj:0)
$_113_z                                            25 	(obj:0)
$_123_x                                            -1 	(obj:0)
$_123_y                                            10 	(obj:0)
$_120_x                                             1 	(obj:0)
$_120_y                                            10 	(obj:0)
$_120_z                                            24 	(obj:0)
$_123_z                                            24 	(obj:0)
$_66_z                                             25 	(obj:0)
$_116_x                                             4 	(obj:0)
$_116_y                                            10 	(obj:0)
$_116_z                                            22 	(obj:0)
$_66_x                                              2 	(obj:0)
$_111_x                                            10 	(obj:0)
$_111_y                                            10 	(obj:0)
$_111_z                                            22 	(obj:0)
$_109_y                                            10 	(obj:0)
$_109_z                                            24 	(obj:0)
$_124_x                                            -5 	(obj:0)
$_124_y                                            10 	(obj:0)
$_124_z                                            24 	(obj:0)
$_127_x                                            -2 	(obj:0)
$_127_y                                            10 	(obj:0)
$_69_x                                              9 	(obj:0)
$_69_y                                             10 	(obj:0)
$_69_z                                             24 	(obj:0)
$_115_x                                            10 	(obj:0)
$_115_y                                            10 	(obj:0)
$_110_x                                             8 	(obj:0)
$_110_y                                            10 	(obj:0)
$_110_z                                            24 	(obj:0)
$_115_z                                            21 	(obj:0)
$_127_z                                            24 	(obj:0)
$_125_x                                            -1 	(obj:0)
$_125_y                                            10 	(obj:0)
$_125_z                                            23 	(obj:0)
$_66_y                                             10 	(obj:0)
$_68_x                                             10 	(obj:0)
$_122_x                                             3 	(obj:0)
$_122_y                                            10 	(obj:0)
$_122_z                                            24 	(obj:0)
$_68_y                                             10 	(obj:0)
$_68_z                                             24 	(obj:0)
$_114_x                                            10 	(obj:0)
$_114_y                                            10 	(obj:0)
$_114_z                                            23 	(obj:0)
$_126_x                                             2 	(obj:0)
$_67_x                                              6 	(obj:0)
